(set-logic QF_S)
(declare-fun T_1e () Bool)
(declare-fun T_1f () Bool)
(declare-fun T_SELECT_5 () Bool)
(declare-fun PCTEMP_LHS_5 () Int)
(declare-fun T0_34 () String)
(declare-fun T1_34 () String)
(declare-fun var_0xINPUT_27509 () String)
(assert (= var_0xINPUT_27509 (str.++ T0_34 T1_34)))
(assert (not (str.in.re T1_34 (str.to.re "__utmz=16886264."))))
(assert T_1f)
(assert (= T_1f (not T_1e)))
(assert (= T_1e (< (- 1) PCTEMP_LHS_5)))
(assert (= PCTEMP_LHS_5 (- 1)))
(assert (= T_SELECT_5 (not (= PCTEMP_LHS_5 (- 1)))))
(assert (= 0 (str.len T0_34))) ; len 0
(assert (not T_SELECT_5))
(check-sat)
